interdiction/MCDM/NO_CORR/GEN_FROM_60/17_ITEMS_1000_GEN/K5017W13.KNP.mps
NAME          BLANK   
ROWS
 N  OBJROW
 L  R0000000
COLUMNS
    C0000000  OBJROW     -840.         R0000000  288.        
    C0000001  OBJROW     -674.         R0000000  579.        
    C0000002  OBJROW     -1000.        R0000000  870.        
    C0000003  OBJROW     -961.         R0000000  910.        
    C0000004  OBJROW     -389.         R0000000  625.        
    C0000005  OBJROW     -84.          R0000000  658.        
    C0000006  OBJROW     -102.         R0000000  503.        
    C0000007  OBJROW     -381.         R0000000  429.        
    C0000008  OBJROW     -910.         R0000000  134.        
    C0000009  OBJROW     -621.         R0000000  707.        
    C0000010  OBJROW     -955.         R0000000  132.        
    C0000011  OBJROW     -429.         R0000000  384.        
    C0000012  OBJROW     -227.         R0000000  618.        
    C0000013  OBJROW     -119.         R0000000  377.        
    C0000014  OBJROW     -12.          R0000000  646.        
    C0000015  OBJROW     -610.         R0000000  831.        
    C0000016  OBJROW     -776.         R0000000  330.        
RHS
    RHS       R0000000  14228.      
BOUNDS
 BV BOUND     C0000000  1.          
 BV BOUND     C0000001  1.          
 BV BOUND     C0000002  1.          
 BV BOUND     C0000003  1.          
 BV BOUND     C0000004  1.          
 BV BOUND     C0000005  1.          
 BV BOUND     C0000006  1.          
 BV BOUND     C0000007  1.          
 BV BOUND     C0000008  1.          
 BV BOUND     C0000009  1.          
 BV BOUND     C0000010  1.          
 BV BOUND     C0000011  1.          
 BV BOUND     C0000012  1.          
 BV BOUND     C0000013  1.          
 BV BOUND     C0000014  1.          
 BV BOUND     C0000015  1.          
 BV BOUND     C0000016  1.          
ENDATA
