data/MCDM/NO_CORR/GEN_FROM_60/17_ITEMS_1000_GEN/K5017W13.KNP.txt
N 17
M 18
LC 17
LC 18
LC 19
LC 20
LC 21
LC 22
LC 23
LC 24
LC 25
LC 26
LC 27
LC 28
LC 29
LC 30
LC 31
LC 32
LC 33
LR 1
LR 2
LR 3
LR 4
LR 5
LR 6
LR 7
LR 8
LR 9
LR 10
LR 11
LR 12
LR 13
LR 14
LR 15
LR 16
LR 17
LR 18
LO -840
LO -674
LO -1000
LO -961
LO -389
LO -84
LO -102
LO -381
LO -910
LO -621
LO -955
LO -429
LO -227
LO -119
LO -12
LO -610
LO -776
OS 1
IC 280
IC 146
IC 281
IC 532
IC 420
IC 384
IC 714
IC 401
IC 266
IC 87
IC 893
IC 729
IC 575
IC 124
IC 663
IC 8
IC 234
IB 3369
